objective value:                                    0
t_x768                                              1 	(obj:0)
t_x2                                                1 	(obj:0)
t_x3                                                1 	(obj:0)
t_x4                                                1 	(obj:0)
t_x5                                                1 	(obj:0)
t_x6                                                1 	(obj:0)
t_x7                                                1 	(obj:0)
t_x8                                                1 	(obj:0)
t_x9                                                1 	(obj:0)
t_x10                                               1 	(obj:0)
t_x11                                               1 	(obj:0)
t_x12                                               1 	(obj:0)
t_x13                                               1 	(obj:0)
t_x14                                               1 	(obj:0)
t_x15                                               1 	(obj:0)
t_x16                                               1 	(obj:0)
t_x17                                               1 	(obj:0)
t_x18                                               1 	(obj:0)
t_x19                                               1 	(obj:0)
t_x20                                               1 	(obj:0)
t_x21                                               1 	(obj:0)
t_x22                                               1 	(obj:0)
t_x23                                               1 	(obj:0)
t_x24                                               1 	(obj:0)
t_x25                                               1 	(obj:0)
t_x26                                               1 	(obj:0)
t_x27                                               1 	(obj:0)
t_x29                                               1 	(obj:0)
t_x30                                               1 	(obj:0)
t_x31                                               1 	(obj:0)
t_x32                                               1 	(obj:0)
t_x33                                               1 	(obj:0)
t_x34                                               1 	(obj:0)
t_x35                                               1 	(obj:0)
t_x36                                               1 	(obj:0)
t_x37                                               1 	(obj:0)
t_x38                                               1 	(obj:0)
t_x39                                               1 	(obj:0)
t_x40                                               1 	(obj:0)
t_x41                                               1 	(obj:0)
t_x42                                               1 	(obj:0)
t_x43                                               1 	(obj:0)
t_x44                                               1 	(obj:0)
t_x45                                               1 	(obj:0)
t_x46                                               1 	(obj:0)
t_x47                                               1 	(obj:0)
t_x48                                               1 	(obj:0)
t_x65                                               1 	(obj:0)
